n = 10;
m = 5;
h = 7;
d = 5;
p = [3, 3, 4, 5, 8, 4, 3, 4, 3, 3];
b = [2, 1, 2, 1, 1, 2, 1, 2, 2, 1];
c = [45, 43, 31, 24, 31];
i = [34, 32, 11, 11, 12, 27, 18, 37, 38, 24];
r = [[[1, 0, 1, 1, 1, 0, 0], [1, 1, 0, 0, 1, 0, 1], [0, 1, 1, 0, 0, 0, 0], [1, 0, 1, 1, 0, 1, 1], [1, 0, 1, 1, 1, 1, 1]], [[1, 0, 1, 0, 0, 0, 1], [0, 1, 1, 1, 1, 0, 0], [1, 0, 1, 0, 0, 1, 1], [0, 0, 1, 1, 1, 0, 0], [0, 1, 0, 1, 0, 0, 1]], [[1, 0, 0, 1, 0, 1, 0], [0, 1, 0, 0, 1, 1, 0], [1, 1, 1, 0, 1, 1, 0], [1, 0, 0, 1, 1, 1, 0], [0, 0, 0, 0, 1, 0, 0]], [[0, 0, 1, 0, 0, 1, 0], [1, 0, 1, 1, 0, 0, 0], [1, 0, 1, 0, 0, 0, 0], [1, 1, 1, 0, 0, 0, 0], [0, 1, 0, 0, 1, 0, 1]], [[1, 0, 1, 1, 1, 1, 0], [1, 1, 1, 1, 1, 1, 0], [1, 0, 1, 1, 0, 0, 1], [1, 0, 0, 1, 0, 0, 0], [0, 0, 1, 0, 0, 0, 1]], [[1, 0, 0, 1, 0, 0, 0], [0, 1, 0, 0, 1, 0, 1], [1, 1, 1, 1, 1, 1, 1], [0, 0, 1, 0, 1, 1, 0], [1, 0, 1, 1, 0, 0, 0]], [[1, 0, 1, 0, 1, 1, 0], [0, 1, 0, 1, 1, 1, 0], [0, 1, 1, 0, 1, 0, 0], [0, 1, 1, 0, 0, 0, 0], [1, 0, 0, 1, 1, 0, 0]], [[0, 0, 1, 0, 0, 1, 1], [0, 0, 1, 1, 1, 0, 0], [0, 0, 0, 0, 1, 1, 1], [0, 0, 1, 0, 0, 1, 0], [0, 1, 1, 0, 1, 0, 1]], [[1, 0, 0, 1, 0, 0, 0], [0, 1, 0, 0, 0, 1, 1], [0, 0, 0, 1, 0, 0, 0], [1, 1, 0, 1, 1, 1, 0], [1, 1, 1, 1, 0, 1, 0]], [[0, 0, 0, 0, 1, 1, 0], [1, 1, 1, 1, 0, 1, 0], [1, 0, 0, 0, 1, 0, 1], [0, 0, 0, 0, 0, 0, 1], [1, 1, 1, 0, 1, 0, 0]]];
